(set-info :smt-lib-version 2.6)
(set-info :category "crafted")
(set-logic QF_FFA)
(define-sort FF0 () (_ FiniteField 52435875175126190479447740508185965837690552500527637822603658699938581184513))
(declare-fun j () Bool)
(declare-fun h () Bool)
(declare-fun i () Bool)
(declare-fun g () Bool)
(declare-fun a () Bool)
(declare-fun c () Bool)
(declare-fun d () Bool)
(declare-fun e () Bool)
(declare-fun f () Bool)
(declare-fun b () Bool)
(declare-fun return_n7 () FF0)
(declare-fun is_zero_n131 () FF0)
(declare-fun mul_n88 () FF0)
(declare-fun mul_n24 () FF0)
(declare-fun mul_n27 () FF0)
(declare-fun is_zero_n33 () FF0)
(declare-fun mul_n118 () FF0)
(declare-fun mul_n57 () FF0)
(declare-fun mul_n72 () FF0)
(declare-fun e_n2 () FF0)
(declare-fun mul_n133 () FF0)
(declare-fun mul_n136 () FF0)
(declare-fun mul_n87 () FF0)
(declare-fun mul_n93 () FF0)
(declare-fun mul_n35 () FF0)
(declare-fun mul_n56 () FF0)
(declare-fun mul_n117 () FF0)
(declare-fun mul_n123 () FF0)
(declare-fun f_n1 () FF0)
(declare-fun mul_n126 () FF0)
(declare-fun mul_n132 () FF0)
(declare-fun g_n10 () FF0)
(declare-fun mul_n135 () FF0)
(declare-fun mul_n74 () FF0)
(declare-fun is_zero_n77 () FF0)
(declare-fun is_zero_n86 () FF0)
(declare-fun mul_n25 () FF0)
(declare-fun mul_n52 () FF0)
(declare-fun mul_n119 () FF0)
(declare-fun mul_n122 () FF0)
(declare-fun j_n3 () FF0)
(declare-fun mul_n64 () FF0)
(declare-fun is_zero_inv_n137 () FF0)
(declare-fun is_zero_n19 () FF0)
(declare-fun mul_n89 () FF0)
(declare-fun mul_n20 () FF0)
(declare-fun mul_n134 () FF0)
(declare-fun mul_n30 () FF0)
(declare-fun is_zero_n81 () FF0)
(declare-fun mul_n90 () FF0)
(declare-fun mul_n96 () FF0)
(declare-fun mul_n102 () FF0)
(declare-fun mul_n78 () FF0)
(declare-fun is_zero_n108 () FF0)
(declare-fun is_zero_n22 () FF0)
(declare-fun mul_n26 () FF0)
(declare-fun mul_n34 () FF0)
(declare-fun b_n8 () FF0)
(declare-fun mul_n73 () FF0)
(declare-fun mul_n95 () FF0)
(declare-fun mul_n129 () FF0)
(declare-fun is_zero_n49 () FF0)
(declare-fun mul_n97 () FF0)
(declare-fun is_zero_inv_n130 () FF0)
(declare-fun mul_n128 () FF0)
(declare-fun mul_n46 () FF0)
(declare-fun mul_n127 () FF0)
(declare-fun mul_n55 () FF0)
(declare-fun mul_n67 () FF0)
(declare-fun mul_n124 () FF0)
(declare-fun mul_n125 () FF0)
(declare-fun mul_n61 () FF0)
(declare-fun mul_n83 () FF0)
(declare-fun mul_n120 () FF0)
(declare-fun mul_n54 () FF0)
(declare-fun mul_n45 () FF0)
(declare-fun is_zero_n116 () FF0)
(declare-fun mul_n38 () FF0)
(declare-fun mul_n79 () FF0)
(declare-fun mul_n50 () FF0)
(declare-fun mul_n114 () FF0)
(declare-fun is_zero_n104 () FF0)
(declare-fun mul_n113 () FF0)
(declare-fun is_zero_n106 () FF0)
(declare-fun is_zero_inv_n115 () FF0)
(declare-fun is_zero_n112 () FF0)
(declare-fun mul_n11 () FF0)
(declare-fun i_n5 () FF0)
(declare-fun mul_n110 () FF0)
(declare-fun mul_n62 () FF0)
(declare-fun mul_n109 () FF0)
(declare-fun is_zero_inv_n111 () FF0)
(declare-fun mul_n28 () FF0)
(declare-fun mul_n65 () FF0)
(declare-fun is_zero_n69 () FF0)
(declare-fun mul_n75 () FF0)
(declare-fun mul_n58 () FF0)
(declare-fun is_zero_inv_n107 () FF0)
(declare-fun is_zero_n99 () FF0)
(declare-fun is_zero_inv_n105 () FF0)
(declare-fun is_zero_inv_n103 () FF0)
(declare-fun mul_n101 () FF0)
(declare-fun mul_n100 () FF0)
(declare-fun mul_n92 () FF0)
(declare-fun is_zero_inv_n98 () FF0)
(declare-fun mul_n94 () FF0)
(declare-fun mul_n91 () FF0)
(declare-fun a_n0 () FF0)
(declare-fun mul_n16 () FF0)
(declare-fun mul_n84 () FF0)
(declare-fun mul_n71 () FF0)
(declare-fun is_zero_inv_n85 () FF0)
(declare-fun mul_n82 () FF0)
(declare-fun mul_n42 () FF0)
(declare-fun is_zero_inv_n80 () FF0)
(declare-fun is_zero_n37 () FF0)
(declare-fun d_n4 () FF0)
(declare-fun mul_n41 () FF0)
(declare-fun mul_n59 () FF0)
(declare-fun mul_n29 () FF0)
(declare-fun is_zero_inv_n76 () FF0)
(declare-fun mul_n47 () FF0)
(declare-fun h_n9 () FF0)
(declare-fun mul_n17 () FF0)
(declare-fun mul_n70 () FF0)
(declare-fun mul_n31 () FF0)
(declare-fun mul_n23 () FF0)
(declare-fun is_zero_inv_n68 () FF0)
(declare-fun mul_n66 () FF0)
(declare-fun mul_n14 () FF0)
(declare-fun is_zero_n44 () FF0)
(declare-fun mul_n63 () FF0)
(declare-fun mul_n60 () FF0)
(declare-fun c_n6 () FF0)
(declare-fun mul_n53 () FF0)
(declare-fun mul_n39 () FF0)
(declare-fun mul_n51 () FF0)
(declare-fun is_zero_n13 () FF0)
(declare-fun is_zero_inv_n48 () FF0)
(declare-fun is_zero_inv_n43 () FF0)
(declare-fun mul_n40 () FF0)
(declare-fun is_zero_inv_n36 () FF0)
(declare-fun mul_n15 () FF0)
(declare-fun is_zero_inv_n32 () FF0)
(declare-fun is_zero_inv_n21 () FF0)
(declare-fun is_zero_inv_n18 () FF0)
(declare-fun is_zero_inv_n12 () FF0)
(assert 
  (let ((let0 j))
  (let ((let1 (not let0)))
  (let ((let2 h))
  (let ((let3 i))
  (let ((let4 g))
  (let ((let5 (= let4 let3)))
  (let ((let6 (not let5)))
  (let ((let7 (not let6)))
  (let ((let8 a))
  (let ((let9 c))
  (let ((let10 (and let2 let0 let8 let9 let3)))
  (let ((let11 d))
  (let ((let12 (ite let11 let10 let8)))
  (let ((let13 e))
  (let ((let14 (ite let13 let12 let0)))
  (let ((let15 f))
  (let ((let16 (= let15 let8)))
  (let ((let17 (= let2 let16)))
  (let ((let18 (not let17)))
  (let ((let19 b))
  (let ((let20 (or let11 let15 let19 let9 let13)))
  (let ((let21 (not let20)))
  (let ((let22 (or let21 let17)))
  (let ((let23 (or let22 let18 let14 let7 let2)))
  (let ((let24 (or let3 let18)))
  (let ((let25 (or let14 let10)))
  (let ((let26 (not let25)))
  (let ((let27 (= let4 let13)))
  (let ((let28 (not let27)))
  (let ((let29 (= let19 let23)))
  (let ((let30 (=> let27 let12)))
  (let ((let31 (= let30 let5)))
  (let ((let32 (=> let16 let30)))
  (let ((let33 (ite let32 let31 let4)))
  (let ((let34 (not let33)))
  (let ((let35 (ite let6 let27 let24)))
  (let ((let36 (and let24 let34 let14 let35)))
  (let ((let37 (ite let36 let34 let29)))
  (let ((let38 (not let36)))
  (let ((let39 (= let38 let25)))
  (let ((let40 (or let39 let17 let37 let28 let26 let24 let23)))
  (let ((let41 (ite let13 let6 let19)))
  (let ((let42 (and let41 let40)))
  (let ((let43 (and let31 let34 let38)))
  (let ((let44 (ite let11 let43 let20)))
  (let ((let45 (not let23)))
  (let ((let46 (and let26 let15 let22 let45 let9 let29 let26 let44)))
  (let ((let47 (=> let10 let46)))
  (let ((let48 (=> let5 let47)))
  (let ((let49 (= let48 let44)))
  (let ((let50 (or let7 let10 let35 let46)))
  (let ((let51 (ite let47 let39 let50)))
  (let ((let52 (or let51 let49 let42)))
  (let ((let53 (and let21 let0 let32)))
  (let ((let54 (or let21 let53)))
  (let ((let55 (not let54)))
  (let ((let56 (=> let55 let48)))
  (let ((let57 (not let30)))
  (let ((let58 (=> let34 let25)))
  (let ((let59 (not let34)))
  (let ((let60 (=> let59 let8)))
  (let ((let61 (not let59)))
  (let ((let62 (not let39)))
  (let ((let63 (=> let9 let18)))
  (let ((let64 (or let30 let53 let63)))
  (let ((let65 (not let64)))
  (let ((let66 (ite let63 let54 let7)))
  (let ((let67 (and let66 let45 let37)))
  (let ((let68 (ite let46 let12 let31)))
  (let ((let69 (and let68 let67 let55)))
  (let ((let70 (not let43)))
  (let ((let71 (or let70 let67 let35 let69 let65 let62 let61 let28 let29 let2 let60 let58)))
  (let ((let72 (not let1)))
  (let ((let73 (and let72 let72 let71)))
  (let ((let74 (and let73 let17)))
  (let ((let75 (=> let6 let20)))
  (let ((let76 (ite let75 let18 let27)))
  (let ((let77 (=> let49 let43)))
  (let ((let78 (and let40 let31 let45 let77 let22 let76 let63 let70 let16 let40 let61 let32)))
  (let ((let79 (and let11 let40)))
  (let ((let80 (= let19 let41)))
  (let ((let81 (not let44)))
  (let ((let82 (or let69 let81 let59 let80 let79 let48)))
  (let ((let83 (and let82 let60 let78)))
  (let ((let84 (=> let61 let37)))
  (let ((let85 (or let73 let83 let84 let36)))
  (let ((let86 (=> let85 let83)))
  (let ((let87 (= let15 let58)))
  (let ((let88 (= let28 let22)))
  (let ((let89 (= let82 let61)))
  (let ((let90 (and let16 let89 let61)))
  (let ((let91 (not let85)))
  (let ((let92 (ite let90 let79 let67)))
  (let ((let93 (or let92 let23 let61)))
  (let ((let94 (= let38 let89)))
  (let ((let95 (= let94 let93)))
  (let ((let96 (and let95 let91 let55 let90)))
  (let ((let97 (ite let78 let90 let78)))
  (let ((let98 (or let72 let97 let3)))
  (let ((let99 (and let71 let98 let96 let88)))
  (let ((let100 (or let5 let76 let75 let96)))
  (let ((let101 (or let66 let26 let60 let79 let77 let71)))
  (let ((let102 (ite let7 let101 let62)))
  (let ((let103 (ite let59 let68 let66)))
  (let ((let104 (not let89)))
  (let ((let105 (and let100 let104 let103 let102 let55)))
  (let ((let106 (ite let105 let15 let100)))
  (let ((let107 (= let51 let80)))
  (let ((let108 (and let107 let106 let4 let85 let99 let87)))
  (let ((let109 (=> let59 let108)))
  (let ((let110 (not let92)))
  (let ((let111 (= let78 let110)))
  (let ((let112 (= let62 let87)))
  (let ((let113 (= let47 let53)))
  (let ((let114 (ite let113 let64 let64)))
  (let ((let115 (=> let83 let114)))
  (let ((let116 (= let115 let112)))
  (let ((let117 (not let116)))
  (let ((let118 (= let69 let25)))
  (let ((let119 (not let118)))
  (let ((let120 (= let92 let33)))
  (let ((let121 (and let120 let119)))
  (let ((let122 (or let59 let55 let48)))
  (let ((let123 (or let94 let122)))
  (let ((let124 (not let95)))
  (let ((let125 (or let124 let50 let75 let93 let123)))
  (let ((let126 (=> let37 let101)))
  (let ((let127 (=> let79 let28)))
  (let ((let128 (not let91)))
  (let ((let129 (not let76)))
  (let ((let130 (and let98 let94 let110)))
  (let ((let131 (=> let88 let21)))
  (let ((let132 (and let131 let130 let129 let128 let127 let126 let125 let121 let117 let111 let109 let86 let74 let57 let56 let52 let1)))
  (let ((let133 return_n7))
  (let ((let134 (as ff1 FF0)))
  (let ((let135 (= let134 let133)))
  (let ((let136 (= let135 let132)))
  (let ((let137 (as ff0 FF0)))
  (let ((let138 (= let137 let133)))
  (let ((let139 (or let135 let138)))
  (let ((let140 (and let139 let136)))
  (let ((let141 (as ff7 FF0)))
  (let ((let142 is_zero_n131))
  (let ((let143 mul_n88))
  (let ((let144 (as ff52435875175126190479447740508185965837690552500527637822603658699938581184512 FF0)))
  (let ((let145 mul_n24))
  (let ((let146 (ff.mul let145 let144)))
  (let ((let147 mul_n27))
  (let ((let148 (ff.mul let147 let144)))
  (let ((let149 is_zero_n33))
  (let ((let150 (ff.mul let149 let144)))
  (let ((let151 mul_n118))
  (let ((let152 (ff.mul let151 let144)))
  (let ((let153 mul_n57))
  (let ((let154 mul_n72))
  (let ((let155 (ff.mul let154 let144)))
  (let ((let156 e_n2))
  (let ((let157 (ff.mul let156 let144)))
  (let ((let158 mul_n133))
  (let ((let159 mul_n136))
  (let ((let160 mul_n87))
  (let ((let161 mul_n93))
  (let ((let162 (ff.mul let161 let144)))
  (let ((let163 mul_n35))
  (let ((let164 (ff.mul let163 let144)))
  (let ((let165 mul_n56))
  (let ((let166 mul_n117))
  (let ((let167 mul_n123))
  (let ((let168 f_n1))
  (let ((let169 (ff.mul let168 let144)))
  (let ((let170 mul_n126))
  (let ((let171 (ff.mul let170 let144)))
  (let ((let172 mul_n132))
  (let ((let173 g_n10))
  (let ((let174 (ff.mul let173 let144)))
  (let ((let175 mul_n135))
  (let ((let176 (ff.mul let175 let144)))
  (let ((let177 mul_n74))
  (let ((let178 is_zero_n77))
  (let ((let179 is_zero_n86))
  (let ((let180 mul_n25))
  (let ((let181 mul_n52))
  (let ((let182 mul_n119))
  (let ((let183 (ff.mul let182 let144)))
  (let ((let184 mul_n122))
  (let ((let185 j_n3))
  (let ((let186 mul_n64))
  (let ((let187 (ff.mul let186 let144)))
  (let ((let188 (ff.add let187 let185 let184 let183 let181 let180 let179 let178 let177 let176 let174 let172 let171 let169 let167 let166 let165 let164 let162 let160 let159 let158 let157 let155 let153 let152 let150 let148 let146 let143 let142 let141)))
  (let ((let189 (ff.mul let133 let188)))
  (let ((let190 (= let189 let137)))
  (let ((let191 (ff.mul let133 let144)))
  (let ((let192 (ff.add let191 let134)))
  (let ((let193 is_zero_inv_n137))
  (let ((let194 (ff.mul let193 let188)))
  (let ((let195 (= let194 let192)))
  (let ((let196 is_zero_n19))
  (let ((let197 (ff.mul let196 let144)))
  (let ((let198 (ff.add let197 let134)))
  (let ((let199 mul_n89))
  (let ((let200 mul_n20))
  (let ((let201 (ff.add let174 let157 let200 let199 let180)))
  (let ((let202 (ff.mul let201 let198)))
  (let ((let203 (= let202 let159)))
  (let ((let204 (ff.add let187 let162 let134)))
  (let ((let205 mul_n134))
  (let ((let206 (ff.mul let205 let204)))
  (let ((let207 (= let206 let175)))
  (let ((let208 mul_n30))
  (let ((let209 (ff.mul let208 let144)))
  (let ((let210 is_zero_n81))
  (let ((let211 (ff.mul let210 let144)))
  (let ((let212 mul_n90))
  (let ((let213 (ff.mul let212 let144)))
  (let ((let214 mul_n96))
  (let ((let215 (ff.add let214 let213 let174 let149 let211 let209 let134)))
  (let ((let216 mul_n102))
  (let ((let217 (ff.mul let216 let144)))
  (let ((let218 (ff.add let217 let134)))
  (let ((let219 (ff.mul let218 let215)))
  (let ((let220 (= let219 let205)))
  (let ((let221 (ff.add let180 let174 let157 let134)))
  (let ((let222 mul_n78))
  (let ((let223 (ff.mul let222 let221)))
  (let ((let224 (= let223 let158)))
  (let ((let225 is_zero_n108))
  (let ((let226 is_zero_n22))
  (let ((let227 mul_n26))
  (let ((let228 mul_n34))
  (let ((let229 b_n8))
  (let ((let230 (ff.mul let229 let144)))
  (let ((let231 (ff.add let230 let228 let227 let226)))
  (let ((let232 (ff.mul let231 let225)))
  (let ((let233 (= let232 let172)))
  (let ((let234 (as ff6 FF0)))
  (let ((let235 mul_n73))
  (let ((let236 (ff.mul let235 let144)))
  (let ((let237 (as ff52435875175126190479447740508185965837690552500527637822603658699938581184511 FF0)))
  (let ((let238 mul_n95))
  (let ((let239 (ff.mul let238 let237)))
  (let ((let240 mul_n129))
  (let ((let241 (ff.mul let240 let144)))
  (let ((let242 is_zero_n49))
  (let ((let243 (ff.mul let242 let144)))
  (let ((let244 mul_n97))
  (let ((let245 (ff.mul let244 let144)))
  (let ((let246 (ff.add let214 let213 let174 let245 let209 let149 let211 let243 let241 let239 let236 let234)))
  (let ((let247 (ff.mul let142 let246)))
  (let ((let248 (= let247 let137)))
  (let ((let249 (ff.mul let142 let144)))
  (let ((let250 (ff.add let249 let134)))
  (let ((let251 is_zero_inv_n130))
  (let ((let252 (ff.mul let251 let246)))
  (let ((let253 (= let252 let250)))
  (let ((let254 mul_n128))
  (let ((let255 (ff.mul let214 let144)))
  (let ((let256 (ff.add let255 let212 let173 let150 let210 let208)))
  (let ((let257 (ff.mul let256 let254)))
  (let ((let258 (= let257 let240)))
  (let ((let259 mul_n46))
  (let ((let260 mul_n127))
  (let ((let261 (ff.mul let260 let259)))
  (let ((let262 (= let261 let254)))
  (let ((let263 mul_n55))
  (let ((let264 (ff.mul let263 let144)))
  (let ((let265 (ff.add let264 let134)))
  (let ((let266 (ff.add let209 let174 let134)))
  (let ((let267 (ff.mul let266 let265)))
  (let ((let268 (= let267 let260)))
  (let ((let269 mul_n67))
  (let ((let270 mul_n124))
  (let ((let271 (ff.mul let270 let144)))
  (let ((let272 (ff.add let271 let146 let269 let134)))
  (let ((let273 mul_n125))
  (let ((let274 (ff.add let187 let273 let162 let174 let209 let134)))
  (let ((let275 (ff.mul let274 let272)))
  (let ((let276 (= let275 let170)))
  (let ((let277 (ff.add let208 let173)))
  (let ((let278 (as ff2 FF0)))
  (let ((let279 (ff.mul let161 let278)))
  (let ((let280 (ff.mul let186 let278)))
  (let ((let281 (ff.add let280 let279)))
  (let ((let282 (ff.mul let281 let277)))
  (let ((let283 (= let282 let273)))
  (let ((let284 (ff.add let146 let134)))
  (let ((let285 (ff.mul let269 let278)))
  (let ((let286 (ff.mul let285 let284)))
  (let ((let287 (= let286 let270)))
  (let ((let288 (ff.mul let153 let144)))
  (let ((let289 (ff.mul let143 let144)))
  (let ((let290 (ff.add let145 let289 let288 let182 let149 let168 let163 let144)))
  (let ((let291 (ff.mul let184 let237)))
  (let ((let292 (ff.add let291 let278)))
  (let ((let293 (ff.mul let292 let290)))
  (let ((let294 (= let293 let167)))
  (let ((let295 mul_n61))
  (let ((let296 mul_n83))
  (let ((let297 (ff.mul let296 let295)))
  (let ((let298 (= let297 let184)))
  (let ((let299 mul_n120))
  (let ((let300 mul_n54))
  (let ((let301 mul_n45))
  (let ((let302 (ff.mul let301 let237)))
  (let ((let303 (ff.add let302 let278)))
  (let ((let304 (ff.mul let303 let300)))
  (let ((let305 (= let304 let299)))
  (let ((let306 (ff.add let143 let169 let153)))
  (let ((let307 (as ff4 FF0)))
  (let ((let308 (ff.mul let163 let237)))
  (let ((let309 (ff.mul let149 let237)))
  (let ((let310 (ff.mul let145 let237)))
  (let ((let311 (ff.add let310 let309 let308 let307)))
  (let ((let312 (ff.mul let311 let306)))
  (let ((let313 (= let312 let182)))
  (let ((let314 (ff.mul let178 let278)))
  (let ((let315 (ff.mul let314 let204)))
  (let ((let316 (= let315 let151)))
  (let ((let317 is_zero_n116))
  (let ((let318 (ff.mul let317 let144)))
  (let ((let319 (ff.add let318 let134)))
  (let ((let320 (ff.mul let277 let319)))
  (let ((let321 (= let320 let166)))
  (let ((let322 (as ff5 FF0)))
  (let ((let323 mul_n38))
  (let ((let324 (ff.mul let323 let144)))
  (let ((let325 mul_n79))
  (let ((let326 mul_n50))
  (let ((let327 mul_n114))
  (let ((let328 (ff.mul let327 let144)))
  (let ((let329 is_zero_n104))
  (let ((let330 (ff.mul let329 let144)))
  (let ((let331 (ff.mul let229 let237)))
  (let ((let332 mul_n113))
  (let ((let333 (ff.mul let332 let144)))
  (let ((let334 is_zero_n106))
  (let ((let335 (ff.add let288 let334 let174 let243 let333 let168 let331 let330 let328 let326 let325 let289 let324 let179 let322)))
  (let ((let336 (ff.mul let317 let335)))
  (let ((let337 (= let336 let137)))
  (let ((let338 is_zero_inv_n115))
  (let ((let339 (ff.mul let338 let335)))
  (let ((let340 (= let339 let319)))
  (let ((let341 (ff.add let331 let324 let325 let134)))
  (let ((let342 (ff.mul let326 let278)))
  (let ((let343 (ff.mul let242 let237)))
  (let ((let344 (ff.add let343 let342 let278)))
  (let ((let345 (ff.mul let344 let341)))
  (let ((let346 (= let345 let327)))
  (let ((let347 (ff.add let168 let334 let144)))
  (let ((let348 is_zero_n112))
  (let ((let349 (ff.mul let348 let347)))
  (let ((let350 (= let349 let332)))
  (let ((let351 mul_n11))
  (let ((let352 (ff.mul let351 let144)))
  (let ((let353 i_n5))
  (let ((let354 mul_n110))
  (let ((let355 (ff.mul let354 let144)))
  (let ((let356 mul_n62))
  (let ((let357 (ff.mul let356 let144)))
  (let ((let358 (ff.mul let173 let278)))
  (let ((let359 mul_n109))
  (let ((let360 (ff.mul let359 let144)))
  (let ((let361 (ff.add let360 let358 let334 let212 let210 let208 let357 let355 let353 let352 let145 let149 let264 let163 let144)))
  (let ((let362 (ff.mul let348 let361)))
  (let ((let363 (= let362 let137)))
  (let ((let364 (ff.mul let348 let144)))
  (let ((let365 (ff.add let364 let134)))
  (let ((let366 is_zero_inv_n111))
  (let ((let367 (ff.mul let366 let361)))
  (let ((let368 (= let367 let365)))
  (let ((let369 mul_n28))
  (let ((let370 (ff.mul let353 let278)))
  (let ((let371 (ff.mul let351 let237)))
  (let ((let372 mul_n65))
  (let ((let373 (ff.add let358 let372 let357 let147 let371 let370 let369 let237)))
  (let ((let374 (ff.mul let277 let373)))
  (let ((let375 (= let374 let354)))
  (let ((let376 (ff.mul let225 let144)))
  (let ((let377 (ff.add let145 let376 let149 let163 let144)))
  (let ((let378 (ff.mul let353 let144)))
  (let ((let379 (ff.add let378 let174 let351 let134)))
  (let ((let380 (ff.mul let379 let377)))
  (let ((let381 (= let380 let359)))
  (let ((let382 is_zero_n69))
  (let ((let383 (ff.mul let382 let144)))
  (let ((let384 mul_n75))
  (let ((let385 (ff.mul let384 let144)))
  (let ((let386 mul_n58))
  (let ((let387 (ff.mul let386 let144)))
  (let ((let388 (ff.add let174 let387 let222 let356 let145 let378 let351 let385 let383 let307)))
  (let ((let389 (ff.mul let225 let388)))
  (let ((let390 (= let389 let137)))
  (let ((let391 (ff.add let376 let134)))
  (let ((let392 is_zero_inv_n107))
  (let ((let393 (ff.mul let392 let388)))
  (let ((let394 (= let393 let391)))
  (let ((let395 (as ff3 FF0)))
  (let ((let396 is_zero_n99))
  (let ((let397 (ff.mul let173 let237)))
  (let ((let398 (ff.add let397 let177 let351 let378 let157 let180 let236 let396 let395)))
  (let ((let399 (ff.mul let334 let398)))
  (let ((let400 (= let399 let137)))
  (let ((let401 (ff.mul let334 let144)))
  (let ((let402 (ff.add let401 let134)))
  (let ((let403 is_zero_inv_n105))
  (let ((let404 (ff.mul let403 let398)))
  (let ((let405 (= let404 let402)))
  (let ((let406 (ff.mul let396 let144)))
  (let ((let407 (ff.mul let199 let144)))
  (let ((let408 (ff.mul let200 let144)))
  (let ((let409 (ff.mul let180 let144)))
  (let ((let410 (ff.add let409 let173 let408 let382 let156 let407 let216 let406 let278)))
  (let ((let411 (ff.mul let329 let410)))
  (let ((let412 (= let411 let137)))
  (let ((let413 (ff.add let330 let134)))
  (let ((let414 is_zero_inv_n103))
  (let ((let415 (ff.mul let414 let410)))
  (let ((let416 (= let415 let413)))
  (let ((let417 (ff.add let378 let134)))
  (let ((let418 mul_n101))
  (let ((let419 (ff.mul let418 let417)))
  (let ((let420 (= let419 let216)))
  (let ((let421 (ff.mul let178 let144)))
  (let ((let422 mul_n100))
  (let ((let423 (ff.mul let422 let144)))
  (let ((let424 (ff.add let423 let421 let134)))
  (let ((let425 (ff.mul let185 let144)))
  (let ((let426 (ff.add let425 let134)))
  (let ((let427 (ff.mul let426 let424)))
  (let ((let428 (= let427 let418)))
  (let ((let429 mul_n92))
  (let ((let430 (ff.add let429 let421)))
  (let ((let431 (ff.mul let178 let430)))
  (let ((let432 (= let431 let422)))
  (let ((let433 (ff.mul let179 let144)))
  (let ((let434 (ff.mul let429 let144)))
  (let ((let435 (ff.mul let238 let144)))
  (let ((let436 (ff.add let214 let213 let174 let264 let245 let209 let149 let211 let435 let434 let433 let322)))
  (let ((let437 (ff.mul let396 let436)))
  (let ((let438 (= let437 let137)))
  (let ((let439 (ff.add let406 let134)))
  (let ((let440 is_zero_inv_n98))
  (let ((let441 (ff.mul let440 let436)))
  (let ((let442 (= let441 let439)))
  (let ((let443 (ff.add let435 let134)))
  (let ((let444 (ff.mul let208 let237)))
  (let ((let445 (ff.mul let210 let237)))
  (let ((let446 (ff.mul let149 let278)))
  (let ((let447 (ff.mul let212 let237)))
  (let ((let448 (ff.mul let214 let278)))
  (let ((let449 (ff.add let448 let447 let397 let446 let445 let444 let278)))
  (let ((let450 (ff.mul let449 let443)))
  (let ((let451 (= let450 let244)))
  (let ((let452 (ff.add let212 let173 let210 let208 let144)))
  (let ((let453 (ff.add let309 let278)))
  (let ((let454 (ff.mul let453 let452)))
  (let ((let455 (= let454 let214)))
  (let ((let456 mul_n94))
  (let ((let457 (ff.mul let456 let277)))
  (let ((let458 (= let457 let238)))
  (let ((let459 (ff.mul let204 let226)))
  (let ((let460 (= let459 let456)))
  (let ((let461 (ff.add let187 let222)))
  (let ((let462 (ff.mul let429 let461)))
  (let ((let463 (= let462 let161)))
  (let ((let464 mul_n91))
  (let ((let465 (ff.mul let464 let266)))
  (let ((let466 (= let465 let429)))
  (let ((let467 a_n0))
  (let ((let468 (ff.mul let467 let144)))
  (let ((let469 mul_n16))
  (let ((let470 (ff.add let469 let169 let468 let134)))
  (let ((let471 (ff.mul let470 let452)))
  (let ((let472 (= let471 let464)))
  (let ((let473 (ff.add let445 let278)))
  (let ((let474 (ff.mul let473 let266)))
  (let ((let475 (= let474 let212)))
  (let ((let476 (ff.add let408 let134)))
  (let ((let477 (ff.mul let156 let278)))
  (let ((let478 (ff.mul let180 let237)))
  (let ((let479 (ff.add let478 let358 let477)))
  (let ((let480 (ff.mul let479 let476)))
  (let ((let481 (= let480 let199)))
  (let ((let482 (ff.add let288 let134)))
  (let ((let483 (ff.mul let168 let278)))
  (let ((let484 (ff.mul let483 let482)))
  (let ((let485 (= let484 let143)))
  (let ((let486 (ff.mul let296 let144)))
  (let ((let487 (ff.add let486 let134)))
  (let ((let488 (ff.add let433 let134)))
  (let ((let489 (ff.mul let488 let487)))
  (let ((let490 (= let489 let160)))
  (let ((let491 mul_n84))
  (let ((let492 (ff.mul let491 let144)))
  (let ((let493 mul_n71))
  (let ((let494 (ff.add let493 let492 let149 let296 let134)))
  (let ((let495 (ff.mul let179 let494)))
  (let ((let496 (= let495 let137)))
  (let ((let497 is_zero_inv_n85))
  (let ((let498 (ff.mul let497 let494)))
  (let ((let499 (= let498 let488)))
  (let ((let500 (ff.mul let226 let144)))
  (let ((let501 (ff.mul let227 let144)))
  (let ((let502 (ff.mul let228 let144)))
  (let ((let503 (ff.add let229 let502 let501 let500 let134)))
  (let ((let504 (ff.mul let266 let503)))
  (let ((let505 (= let504 let491)))
  (let ((let506 mul_n82))
  (let ((let507 (ff.mul let506 let178)))
  (let ((let508 (= let507 let296)))
  (let ((let509 (ff.add let387 let134)))
  (let ((let510 (ff.add let211 let134)))
  (let ((let511 (ff.mul let510 let509)))
  (let ((let512 (= let511 let506)))
  (let ((let513 (ff.mul let259 let144)))
  (let ((let514 mul_n42))
  (let ((let515 (ff.mul let514 let144)))
  (let ((let516 (ff.add let196 let515 let173 let208 let222 let331 let513 let325 let324 let269 let278)))
  (let ((let517 (ff.mul let210 let516)))
  (let ((let518 (= let517 let137)))
  (let ((let519 is_zero_inv_n80))
  (let ((let520 (ff.mul let519 let516)))
  (let ((let521 (= let520 let510)))
  (let ((let522 (ff.add let229 let323)))
  (let ((let523 (ff.mul let229 let278)))
  (let ((let524 (ff.mul let523 let522)))
  (let ((let525 (= let524 let325)))
  (let ((let526 is_zero_n37))
  (let ((let527 (ff.mul let526 let144)))
  (let ((let528 (ff.add let527 let134)))
  (let ((let529 d_n4))
  (let ((let530 (ff.mul let529 let528)))
  (let ((let531 (= let530 let222)))
  (let ((let532 mul_n41))
  (let ((let533 mul_n59))
  (let ((let534 (ff.mul let177 let144)))
  (let ((let535 (ff.mul let469 let144)))
  (let ((let536 (ff.mul let369 let144)))
  (let ((let537 (ff.mul let526 let278)))
  (let ((let538 mul_n29))
  (let ((let539 (ff.add let467 let538 let200 let351 let384 let537 let378 let156 let536 let409 let500 let535 let534 let173 let168 let208 let533 let148 let532 let395)))
  (let ((let540 (ff.mul let178 let539)))
  (let ((let541 (= let540 let137)))
  (let ((let542 (ff.add let421 let134)))
  (let ((let543 is_zero_inv_n76))
  (let ((let544 (ff.mul let543 let539)))
  (let ((let545 (= let544 let542)))
  (let ((let546 (ff.mul let532 let144)))
  (let ((let547 (ff.add let546 let134)))
  (let ((let548 mul_n47))
  (let ((let549 (ff.add let515 let548 let259 let196 let144)))
  (let ((let550 (ff.mul let549 let547)))
  (let ((let551 (= let550 let384)))
  (let ((let552 h_n9))
  (let ((let553 mul_n17))
  (let ((let554 (ff.mul let553 let144)))
  (let ((let555 (ff.add let469 let468 let173 let554 let169 let156 let409 let552)))
  (let ((let556 (ff.add let236 let134)))
  (let ((let557 (ff.mul let556 let555)))
  (let ((let558 (= let557 let177)))
  (let ((let559 (ff.add let353 let173 let352)))
  (let ((let560 (ff.mul let559 let196)))
  (let ((let561 (= let560 let235)))
  (let ((let562 (ff.mul let552 let144)))
  (let ((let563 (ff.add let535 let467 let553 let562 let168)))
  (let ((let564 (ff.mul let493 let563)))
  (let ((let565 (= let564 let154)))
  (let ((let566 (ff.add let383 let134)))
  (let ((let567 mul_n70))
  (let ((let568 (ff.mul let567 let566)))
  (let ((let569 (= let568 let493)))
  (let ((let570 (ff.mul let185 let185)))
  (let ((let571 (= let570 let567)))
  (let ((let572 mul_n31))
  (let ((let573 mul_n23))
  (let ((let574 (ff.mul let573 let144)))
  (let ((let575 (ff.add let186 let295 let227 let574 let269 let387 let230 let156 let572 let409 let226 let288 let150 let209 let146 let546 let552 let164 let141)))
  (let ((let576 (ff.mul let382 let575)))
  (let ((let577 (= let576 let137)))
  (let ((let578 is_zero_inv_n68))
  (let ((let579 (ff.mul let578 let575)))
  (let ((let580 (= let579 let566)))
  (let ((let581 mul_n66))
  (let ((let582 (ff.mul let581 let263)))
  (let ((let583 (= let582 let269)))
  (let ((let584 (ff.add let147 let353 let173 let369 let372 let352 let144)))
  (let ((let585 (ff.mul let584 let186)))
  (let ((let586 (= let585 let581)))
  (let ((let587 mul_n14))
  (let ((let588 (ff.add let467 let378 let174 let148 let536 let587 let351 let134)))
  (let ((let589 is_zero_n44))
  (let ((let590 (ff.mul let589 let588)))
  (let ((let591 (= let590 let372)))
  (let ((let592 mul_n63))
  (let ((let593 (ff.mul let592 let231)))
  (let ((let594 (= let593 let186)))
  (let ((let595 (ff.add let378 let174 let356 let351 let134)))
  (let ((let596 (ff.mul let595 let226)))
  (let ((let597 (= let596 let592)))
  (let ((let598 (ff.add let353 let173 let264 let352)))
  (let ((let599 (ff.mul let533 let144)))
  (let ((let600 (ff.add let599 let134)))
  (let ((let601 (ff.mul let600 let598)))
  (let ((let602 (= let601 let356)))
  (let ((let603 mul_n60))
  (let ((let604 (ff.mul let603 let533)))
  (let ((let605 (= let604 let295)))
  (let ((let606 (ff.mul let300 let144)))
  (let ((let607 (ff.add let606 let134)))
  (let ((let608 (ff.mul let147 let607)))
  (let ((let609 (= let608 let603)))
  (let ((let610 c_n6))
  (let ((let611 (ff.mul let610 let563)))
  (let ((let612 (= let611 let533)))
  (let ((let613 (ff.add let468 let134)))
  (let ((let614 (ff.mul let277 let613)))
  (let ((let615 (= let614 let386)))
  (let ((let616 (ff.mul let266 let145)))
  (let ((let617 (= let616 let153)))
  (let ((let618 (ff.mul let263 let259)))
  (let ((let619 (= let618 let165)))
  (let ((let620 (ff.mul let198 let607)))
  (let ((let621 (= let620 let263)))
  (let ((let622 (ff.mul let538 let144)))
  (let ((let623 (ff.add let622 let134)))
  (let ((let624 mul_n53))
  (let ((let625 (ff.mul let624 let623)))
  (let ((let626 (= let625 let300)))
  (let ((let627 (ff.mul let196 let185)))
  (let ((let628 (= let627 let624)))
  (let ((let629 mul_n39))
  (let ((let630 (ff.mul let629 let144)))
  (let ((let631 (ff.add let630 let134)))
  (let ((let632 mul_n51))
  (let ((let633 (ff.mul let632 let631)))
  (let ((let634 (= let633 let181)))
  (let ((let635 (ff.mul let548 let144)))
  (let ((let636 (ff.add let514 let635 let513 let197 let278)))
  (let ((let637 (ff.mul let326 let144)))
  (let ((let638 (ff.add let242 let637)))
  (let ((let639 (ff.mul let638 let636)))
  (let ((let640 (= let639 let632)))
  (let ((let641 (ff.add let145 let149 let242 let163 let237)))
  (let ((let642 (ff.mul let301 let144)))
  (let ((let643 (ff.add let642 let134)))
  (let ((let644 (ff.mul let643 let641)))
  (let ((let645 (= let644 let326)))
  (let ((let646 is_zero_n13))
  (let ((let647 (ff.add let378 let174 let646 let574 let572 let589 let351 let278)))
  (let ((let648 (ff.mul let242 let647)))
  (let ((let649 (= let648 let137)))
  (let ((let650 (ff.add let243 let134)))
  (let ((let651 is_zero_inv_n48))
  (let ((let652 (ff.mul let651 let647)))
  (let ((let653 (= let652 let650)))
  (let ((let654 (ff.add let514 let197 let134)))
  (let ((let655 (ff.mul let259 let237)))
  (let ((let656 (ff.add let655 let278)))
  (let ((let657 (ff.mul let656 let654)))
  (let ((let658 (= let657 let548)))
  (let ((let659 (ff.mul let379 let301)))
  (let ((let660 (= let659 let259)))
  (let ((let661 (ff.mul let589 let144)))
  (let ((let662 (ff.add let661 let134)))
  (let ((let663 (ff.mul let646 let662)))
  (let ((let664 (= let663 let301)))
  (let ((let665 (ff.mul let610 let144)))
  (let ((let666 (ff.mul let226 let237)))
  (let ((let667 (ff.add let196 let501 let515 let200 let169 let310 let229 let666 let665 let234)))
  (let ((let668 (ff.mul let589 let667)))
  (let ((let669 (= let668 let137)))
  (let ((let670 is_zero_inv_n43))
  (let ((let671 (ff.mul let670 let667)))
  (let ((let672 (= let671 let662)))
  (let ((let673 (ff.add let532 let196 let144)))
  (let ((let674 (ff.mul let529 let673)))
  (let ((let675 (= let674 let514)))
  (let ((let676 (ff.add let150 let134)))
  (let ((let677 mul_n40))
  (let ((let678 (ff.mul let677 let676)))
  (let ((let679 (= let678 let532)))
  (let ((let680 (ff.add let352 let353 let173 let369 let147 let144)))
  (let ((let681 (ff.mul let680 let266)))
  (let ((let682 (= let681 let677)))
  (let ((let683 (ff.mul let522 let528)))
  (let ((let684 (= let683 let629)))
  (let ((let685 (ff.add let230 let353 let173 let352)))
  (let ((let686 (ff.mul let156 let685)))
  (let ((let687 (= let686 let323)))
  (let ((let688 (ff.mul let145 let278)))
  (let ((let689 (ff.add let467 let227 let574 let553 let230 let228 let156 let409 let535 let173 let149 let168 let688 let562 let163 let134)))
  (let ((let690 (ff.mul let526 let689)))
  (let ((let691 (= let690 let137)))
  (let ((let692 is_zero_inv_n36))
  (let ((let693 (ff.mul let692 let689)))
  (let ((let694 (= let693 let528)))
  (let ((let695 (ff.mul let453 let284)))
  (let ((let696 (= let695 let163)))
  (let ((let697 (ff.add let229 let174 let501 let209 let500 let134)))
  (let ((let698 (ff.mul let149 let697)))
  (let ((let699 (= let698 let228)))
  (let ((let700 (ff.mul let572 let144)))
  (let ((let701 mul_n15))
  (let ((let702 (ff.mul let701 let144)))
  (let ((let703 (ff.mul let573 let278)))
  (let ((let704 (ff.add let173 let703 let702 let700 let208 let425 let134)))
  (let ((let705 (ff.mul let149 let704)))
  (let ((let706 (= let705 let137)))
  (let ((let707 is_zero_inv_n32))
  (let ((let708 (ff.mul let707 let704)))
  (let ((let709 (= let708 let676)))
  (let ((let710 (ff.add let174 let157 let573 let180)))
  (let ((let711 (ff.mul let559 let710)))
  (let ((let712 (= let711 let572)))
  (let ((let713 (ff.add let352 let353 let369 let147 let144)))
  (let ((let714 (ff.mul let623 let713)))
  (let ((let715 (= let714 let208)))
  (let ((let716 (ff.mul let470 let147)))
  (let ((let717 (= let716 let538)))
  (let ((let718 (ff.mul let147 let237)))
  (let ((let719 (ff.add let718 let278)))
  (let ((let720 (ff.mul let719 let379)))
  (let ((let721 (= let720 let369)))
  (let ((let722 (ff.mul let587 let144)))
  (let ((let723 (ff.add let468 let722 let134)))
  (let ((let724 (ff.mul let221 let723)))
  (let ((let725 (= let724 let147)))
  (let ((let726 (ff.add let500 let134)))
  (let ((let727 (ff.mul let523 let726)))
  (let ((let728 (= let727 let227)))
  (let ((let729 (ff.mul let358 let156)))
  (let ((let730 (= let729 let180)))
  (let ((let731 (ff.mul let646 let144)))
  (let ((let732 (ff.add let731 let134)))
  (let ((let733 (ff.add let702 let425 let134)))
  (let ((let734 (ff.mul let733 let732)))
  (let ((let735 (= let734 let145)))
  (let ((let736 (ff.mul let417 let563)))
  (let ((let737 (= let736 let573)))
  (let ((let738 (ff.mul let552 let278)))
  (let ((let739 (ff.add let469 let468 let174 let408 let554 let169 let351 let378 let701 let738 let185 let395)))
  (let ((let740 (ff.mul let226 let739)))
  (let ((let741 (= let740 let137)))
  (let ((let742 is_zero_inv_n21))
  (let ((let743 (ff.mul let742 let739)))
  (let ((let744 (= let743 let726)))
  (let ((let745 (ff.add let469 let468 let554 let552 let169 let134)))
  (let ((let746 (ff.mul let198 let745)))
  (let ((let747 (= let746 let200)))
  (let ((let748 (ff.add let229 let156 let529 let168 let610)))
  (let ((let749 (ff.mul let196 let748)))
  (let ((let750 (= let749 let137)))
  (let ((let751 is_zero_inv_n18))
  (let ((let752 (ff.mul let751 let748)))
  (let ((let753 (= let752 let198)))
  (let ((let754 (ff.mul let738 let470)))
  (let ((let755 (= let754 let553)))
  (let ((let756 (ff.mul let483 let467)))
  (let ((let757 (= let756 let469)))
  (let ((let758 (ff.add let467 let587 let425)))
  (let ((let759 (ff.mul let156 let758)))
  (let ((let760 (= let759 let701)))
  (let ((let761 (ff.add let468 let646)))
  (let ((let762 (ff.mul let529 let761)))
  (let ((let763 (= let762 let587)))
  (let ((let764 (ff.add let468 let378 let562 let665 let425 let322)))
  (let ((let765 (ff.mul let646 let764)))
  (let ((let766 (= let765 let137)))
  (let ((let767 is_zero_inv_n12))
  (let ((let768 (ff.mul let767 let764)))
  (let ((let769 (= let768 let732)))
  (let ((let770 (ff.mul let358 let353)))
  (let ((let771 (= let770 let351)))
  (let ((let772 (and let771 let769 let766 let763 let760 let757 let755 let753 let750 let747 let744 let741 let737 let735 let730 let728 let725 let721 let717 let715 let712 let709 let706 let699 let696 let694 let691 let687 let684 let682 let679 let675 let672 let669 let664 let660 let658 let653 let649 let645 let640 let634 let628 let626 let621 let619 let617 let615 let612 let609 let605 let602 let597 let594 let591 let586 let583 let580 let577 let571 let569 let565 let561 let558 let551 let545 let541 let531 let525 let521 let518 let512 let508 let505 let499 let496 let490 let485 let481 let475 let472 let466 let463 let460 let458 let455 let451 let442 let438 let432 let428 let420 let416 let412 let405 let400 let394 let390 let381 let375 let368 let363 let350 let346 let340 let337 let321 let316 let313 let305 let298 let294 let287 let283 let276 let268 let262 let258 let253 let248 let233 let224 let220 let207 let203 let195 let190)))
  (let ((let773 (ite let15 let134 let137)))
  (let ((let774 (= let168 let773)))
  (let ((let775 (ite let0 let134 let137)))
  (let ((let776 (= let185 let775)))
  (let ((let777 (ite let4 let134 let137)))
  (let ((let778 (= let173 let777)))
  (let ((let779 (ite let8 let134 let137)))
  (let ((let780 (= let467 let779)))
  (let ((let781 (ite let2 let134 let137)))
  (let ((let782 (= let552 let781)))
  (let ((let783 (ite let9 let134 let137)))
  (let ((let784 (= let610 let783)))
  (let ((let785 (ite let19 let134 let137)))
  (let ((let786 (= let229 let785)))
  (let ((let787 (ite let13 let134 let137)))
  (let ((let788 (= let156 let787)))
  (let ((let789 (ite let3 let134 let137)))
  (let ((let790 (= let353 let789)))
  (let ((let791 (ite let11 let134 let137)))
  (let ((let792 (= let529 let791)))
  (let ((let793 (and let792 let790 let788 let786 let784 let782 let780 let778 let776 let774)))
  (let ((let794 (and let793 let772)))
  (let ((let795 (=> let794 let140)))
  (let ((let796 (not let795)))
  let796
)))))))))))))))))))))))))))))))))))))))))))))))))))))))))))))))))))))))))))))))))))))))))))))))))))))))))))))))))))))))))))))))))))))))))))))))))))))))))))))))))))))))))))))))))))))))))))))))))))))))))))))))))))))))))))))))))))))))))))))))))))))))))))))))))))))))))))))))))))))))))))))))))))))))))))))))))))))))))))))))))))))))))))))))))))))))))))))))))))))))))))))))))))))))))))))))))))))))))))))))))))))))))))))))))))))))))))))))))))))))))))))))))))))))))))))))))))))))))))))))))))))))))))))))))))))))))))))))))))))))))))))))))))))))))))))))))))))))))))))))))))))))))))))))))))))))))))))))))))))))))))))))))))))))))))))))))))))))))))))))))))))))))))))))))))))))))))))))))))))))))))))))))))))))))))))))))))))))))))))))))))))))))))))))))))))))))))))))))))))))))))))))))))))))))))))))))))))))))))))
)
(check-sat)
